(set-option :produce-models true)
(set-logic QF_UF)
(declare-fun p11() Bool)
(declare-fun p9() Bool)
(declare-fun p2() Bool)
(declare-fun p8() Bool)
(declare-fun p10() Bool)
(declare-fun p1() Bool)
(declare-fun p7() Bool)
(declare-fun p12() Bool)
(declare-fun p6() Bool)
(declare-fun p3() Bool)
(declare-fun p0() Bool)
(declare-fun p4() Bool)
(declare-fun p14() Bool)
(declare-fun p5() Bool)
(declare-fun p13() Bool)
(assert
(and (or (not p11) p9 (not p2)) (or (not p8) p10 (not p9)) (or p1 (not p7) (not p12)) (or (not p2) p12 (not p6)) (or (not p2) (not p2) p6) (or p3 p11 (not p3)) (or (not p10) p12 (not p10)) (or (not p0) p2 p4) (or (not p11) p4 p7) (or (not p14) (not p10) (not p7)) (or p8 p10 p10) (or p1 (not p5) p3) (or (not p5) (not p14) p9) (or (not p8) p9 p7) (or (not p4) (not p8) p8) (or p4 p8 (not p2)) (or (not p13) (not p8) p3) (or (not p13) (not p2) p8) (or p11 (not p2) (not p9)) (or (not p10) p0 (not p0)) (or (not p5) (not p5) (not p4)) (or (not p1) p1 (not p8)) (or p12 p0 p12) (or p7 p4 p6) (or p1 (not p1) (not p2)) (or p2 (not p1) (not p2)) (or p14 (not p9) p11) (or p8 p9 (not p2)) (or (not p11) p9 p3) (or (not p11) p1 p1) (or p13 p3 p13) (or p0 p13 (not p14)) (or p12 p0 p2) (or (not p5) (not p0) (not p2)) (or (not p3) p14 (not p7)) (or (not p7) (not p5) (not p2)) (or p6 (not p12) (not p5)) (or p7 (not p2) (not p2)) (or (not p3) (not p1) (not p7)) (or (not p12) (not p13) (not p11)) (or (not p9) (not p7) (not p10)) (or (not p12) p13 (not p3)) (or p3 (not p8) p8) (or (not p8) (not p12) p4) (or p2 (not p0) (not p6)) (or (not p0) (not p1) p14) (or p1 (not p11) p8) (or (not p3) p11 (not p5)) (or p11 p14 p12) (or (not p4) p10 (not p3)) (or (not p11) p14 (not p7)) (or p8 (not p13) p12) (or (not p7) (not p13) p7) (or (not p2) (not p11) p14) (or (not p1) (not p1) (not p0)) (or (not p6) (not p2) p2) (or p11 (not p13) (not p12)) (or p1 (not p0) (not p13)) (or (not p3) (not p6) (not p6)) (or p2 p0 p11) (or (not p4) p5 (not p6)) (or (not p11) (not p12) p1) (or p5 (not p9) (not p4)) (or p13 (not p14) p13) (or (not p11) p5 (not p12)) (or p6 p8 p3) (or (not p12) p10 (not p8)) (or p3 (not p3) (not p12)) (or p8 p12 (not p10)))
)
(check-sat)
(get-model)
